TITL Co110
CELL 0.71073 7.9999 9.3718 14.7362 82.625 81.527 81.726
ZERR 2 0.0002 0.0003 0.0005 0.001 0.001 0.001
LATT 1
SFAC C H N O F S CO
UNIT 32 32 8 8 12 4 2
L.S. 4
PLAN  20
BOND
FMAP 2
 
WGHT    0.040300    1.108700
FVAR       0.43460
CO    7    0.098914    0.205438    0.244648    11.00000    0.01564    0.01882 =
         0.01150   -0.00480   -0.00035    0.00173
S10   6    0.465866    0.036829    0.191036    11.00000    0.01582    0.02011 =
         0.01634   -0.00578   -0.00119    0.00193
S20   6    0.193273    0.474449    0.323350    11.00000    0.02124    0.01818 =
         0.01539   -0.00332   -0.00392    0.00042
O20   4    0.283074    0.487737    0.231238    11.00000    0.02564    0.02658 =
         0.01711   -0.00060   -0.00246   -0.00314
O11   4    0.606710    0.053634    0.119272    11.00000    0.01788    0.02655 =
         0.02568   -0.00464    0.00152   -0.00086
O21   4    0.090845    0.599071    0.359147    11.00000    0.03073    0.01858 =
         0.02646   -0.00465   -0.00477    0.00346
N10   3    0.001591    0.268292    0.123272    11.00000    0.01754    0.01986 =
         0.01528   -0.00287   -0.00313    0.00013
N20   3   -0.059761    0.107461    0.346833    11.00000    0.01624    0.02020 =
         0.01575   -0.00189   -0.00318    0.00081
N11   3    0.290639    0.112122    0.163484    11.00000    0.01905    0.02873 =
         0.01279   -0.00668   -0.00080    0.00638
C17   1    0.450316   -0.158415    0.202331    11.00000    0.01892    0.02402 =
         0.02822   -0.00463    0.00145    0.00005
N21   3    0.101908    0.334801    0.339286    11.00000    0.01945    0.02102 =
         0.01362   -0.00564    0.00040   -0.00121
C20   1   -0.079689   -0.087485    0.256134    11.00000    0.02460    0.02338 =
         0.02940   -0.00530   -0.00973   -0.00243
AFIX 137
H20A  2   -0.142788   -0.032916    0.209730    11.00000   -1.50000
H20C  2   -0.107519   -0.185046    0.266395    11.00000   -1.50000
H20B  2    0.040141   -0.088787    0.235848    11.00000   -1.50000
AFIX   0
C13   1   -0.095658    0.335242   -0.051728    11.00000    0.03578    0.03805 =
         0.02207    0.00533   -0.01396   -0.00784
AFIX  43
H13   2   -0.128286    0.358097   -0.110419    11.00000   -1.50000
AFIX   0
C27   1    0.365193    0.436211    0.397195    11.00000    0.02623    0.02241 =
         0.02048   -0.00304   -0.00641   -0.00204
C25   1   -0.099426    0.177873    0.423199    11.00000    0.01605    0.02520 =
         0.01681   -0.00334   -0.00229    0.00192
C11   1   -0.151175    0.348809    0.111668    11.00000    0.02005    0.02150 =
         0.02566    0.00014   -0.00458   -0.00135
C12   1   -0.201053    0.383591    0.024472    11.00000    0.02599    0.02956 =
         0.03415    0.00328   -0.01399    0.00052
AFIX  43
H12   2   -0.305162    0.439323    0.017156    11.00000   -1.50000
AFIX   0
C26   1   -0.028221    0.318381    0.420917    11.00000    0.02297    0.02545 =
         0.01741   -0.00859    0.00385    0.00019
AFIX  23
H26A  2   -0.118997    0.398819    0.417946    11.00000   -1.50000
H26B  2    0.022569    0.318933    0.476697    11.00000   -1.50000
AFIX   0
C24   1   -0.204008    0.125110    0.500293    11.00000    0.02033    0.03535 =
         0.01559   -0.00050   -0.00104    0.00220
AFIX  43
H24   2   -0.229376    0.175022    0.552244    11.00000   -1.50000
AFIX   0
C21   1   -0.124906   -0.018181    0.344422    11.00000    0.01709    0.02392 =
         0.02394    0.00104   -0.00927   -0.00056
C14   1    0.058756    0.252527   -0.039426    11.00000    0.03338    0.03952 =
         0.01576   -0.00417   -0.00338   -0.00225
AFIX  43
H14   2    0.130915    0.218111   -0.089556    11.00000   -1.50000
AFIX   0
C22   1   -0.229527   -0.074821    0.419672    11.00000    0.02346    0.03072 =
         0.02951    0.00684   -0.01056   -0.00786
AFIX  43
H22   2   -0.272992   -0.161023    0.417581    11.00000   -1.50000
AFIX   0
C15   1    0.104043    0.221844    0.048882    11.00000    0.02232    0.02756 =
         0.01599   -0.00404   -0.00305   -0.00048
C23   1   -0.269643   -0.002831    0.498397    11.00000    0.01945    0.04164 =
         0.02290    0.00906   -0.00259   -0.00561
AFIX  43
H23   2   -0.339849   -0.040373    0.549192    11.00000   -1.50000
AFIX   0
C16   1    0.272049    0.132794    0.064310    11.00000    0.03009    0.05833 =
         0.01274   -0.00941   -0.00409    0.01644
AFIX  23
H16A  2    0.277877    0.039103    0.041855    11.00000   -1.50000
H16B  2    0.364635    0.181618    0.030051    11.00000   -1.50000
AFIX   0
C10   1   -0.260362    0.394251    0.197281    11.00000    0.02448    0.03923 =
         0.03260   -0.00598   -0.00302    0.01349
AFIX 137
H10A  2   -0.286021    0.309714    0.238235    11.00000   -1.50000
H10B  2   -0.364413    0.449706    0.181147    11.00000   -1.50000
H10C  2   -0.200653    0.452468    0.227348    11.00000   -1.50000
AFIX   0
F22   5    0.469568    0.317091    0.378146    11.00000    0.02605    0.03410 =
         0.03061   -0.00821   -0.00681    0.00788
F20   5    0.299992    0.416374    0.486160    11.00000    0.03641    0.03655 =
         0.01798   -0.00652   -0.00790    0.00377
F21   5    0.457441    0.545901    0.386255    11.00000    0.04693    0.03506 =
         0.04590    0.00502   -0.02559   -0.01873
O10   4    0.481373    0.060573    0.283427    11.00000    0.02595    0.03071 =
         0.01999   -0.00886   -0.00713    0.00604
F11   5    0.596499   -0.237225    0.220858    11.00000    0.02131    0.02338 =
         0.06953   -0.00383   -0.00133    0.00574
F12   5    0.329106   -0.193323    0.269770    11.00000    0.02551    0.03056 =
         0.03591    0.00410    0.00630   -0.00371
F10   5    0.412406   -0.197675    0.124201    11.00000    0.05061    0.03578 =
         0.03675   -0.01727    0.00127   -0.01634
HKLF 4 1 1 0 0 0 1 0 0 0 1
 
REM  Co110
REM R1 =  0.0312 for   4121 Fo > 4sig(Fo)  and  0.0410 for all   4897 data
REM    300 parameters refined using      0 restraints
 
END  
     
WGHT      0.0372      0.6110 
REM Highest difference peak  0.635,  deepest hole -0.375,  1-sigma level  0.069
Q1    1   0.2832  0.4569  0.3629  11.00000  0.05    0.64
Q2    1  -0.0093  0.1784  0.2352  11.00000  0.05    0.48
Q3    1   0.0282  0.1440  0.2968  11.00000  0.05    0.48
Q4    1   0.0552  0.2538  0.1774  11.00000  0.05    0.45
Q5    1   0.3625  0.0538  0.1740  11.00000  0.05    0.39
Q6    1   0.2016  0.2239  0.2655  11.00000  0.05    0.38
Q7    1  -0.0016  0.3062 -0.0374  11.00000  0.05    0.34
Q8    1   0.4422 -0.0634  0.1961  11.00000  0.05    0.34
Q9    1   0.1281  0.4020  0.3396  11.00000  0.05    0.34
Q10   1   0.0729  0.2203  0.0044  11.00000  0.05    0.33
Q11   1   0.1421  0.2655  0.1969  11.00000  0.05    0.33
Q12   1   0.5232  0.0943  0.1390  11.00000  0.05    0.33
Q13   1  -0.1725 -0.0445  0.3808  11.00000  0.05    0.32
Q14   1  -0.1513  0.3865  0.0610  11.00000  0.05    0.29
Q15   1   0.2787  0.1056  0.1245  11.00000  0.05    0.29
Q16   1  -0.1403  0.1396  0.4628  11.00000  0.05    0.29
Q17   1  -0.1276  0.0559  0.3376  11.00000  0.05    0.28
Q18   1  -0.0696  0.2468  0.4210  11.00000  0.05    0.28
Q19   1  -0.2047  0.3643  0.1532  11.00000  0.05    0.26
Q20   1   0.3863  0.2353  0.0423  11.00000  0.05    0.26
