TITL S094 IN PNA2(1)
CELL 0.71073 15.0815 24.6147 5.0146 90 90 90
ZERR 8 0.0004 0.0006 0.0001 0 0 0
LATT -1
SYMM -X,-Y,0.5+Z
SYMM 0.5-X,0.5+Y,0.5+Z
SYMM 0.5+X,0.5-Y,+Z
SFAC C H N O F
UNIT 64 88 24 8 16
EQIV $1 2-X,2-Y,-0.5+Z
EQIV $2 1.5-X,-0.5+Y,-0.5+Z
 
L.S. 4
PLAN  10
SIZE 0.52 0.08 0.04
TEMP -153
HTAB  N11 O21_$1
HTAB  N13 O21
HTAB  N21 O11_$1
HTAB  N23 O11_$2
BOND $H
FMAP 2.0
ACTA
OMIT -3 60
REM <HKL>C:/DS/Data/2007/07srv094/07srv094.hkl</HKL>
 
WGHT    0.050000
FVAR       0.31996
F11   5    0.901484    0.970330    0.459232    11.00000    0.02658    0.01820 =
         0.02883   -0.00669    0.00386   -0.00413
F12   5    0.841476    1.106012    1.097219    11.00000    0.02132    0.01955 =
         0.03235   -0.00744    0.00848   -0.00072
F21   5    0.717017    0.709327    0.311014    11.00000    0.02480    0.02488 =
         0.03363   -0.01229    0.00332   -0.00631
F22   5    0.676189    0.830369    1.030964    11.00000    0.02061    0.02361 =
         0.02953   -0.00809    0.00423   -0.00214
O11   4    0.981072    1.160418    0.889618    11.00000    0.01630    0.01504 =
         0.03217   -0.00250   -0.00047   -0.00036
O21   4    0.833862    0.875727    0.882785    11.00000    0.01783    0.01797 =
         0.03401   -0.00489   -0.00180   -0.00176
N11   3    0.999382    1.094937    0.573181    11.00000    0.01738    0.01613 =
         0.02303    0.00129    0.00173   -0.00204
N12   3    0.981911    1.045922    0.462493    11.00000    0.02122    0.01634 =
         0.02224   -0.00009    0.00190    0.00086
N13   3    0.800271    0.999206    0.873649    11.00000    0.02036    0.01479 =
         0.03469   -0.00450    0.00854   -0.00343
N21   3    0.847297    0.814113    0.547897    11.00000    0.01538    0.01842 =
         0.02961   -0.00195    0.00157   -0.00304
N22   3    0.819363    0.771656    0.398091    11.00000    0.01990    0.01939 =
         0.02661   -0.00403    0.00064   -0.00050
N23   3    0.612150    0.738129    0.717597    11.00000    0.01838    0.01756 =
         0.03046   -0.00501    0.00233   -0.00485
C11   1    0.918886    1.018882    0.568235    11.00000    0.01992    0.01537 =
         0.02133   -0.00084   -0.00062   -0.00076
C12   1    0.863577    1.034220    0.789827    11.00000    0.01508    0.01634 =
         0.02302   -0.00056    0.00069    0.00050
C13   1    0.883926    1.084856    0.885767    11.00000    0.01489    0.01682 =
         0.02411   -0.00033    0.00236    0.00158
C14   1    0.956377    1.116368    0.786990    11.00000    0.01362    0.01443 =
         0.02254    0.00080   -0.00049    0.00273
C15   1    0.733097    1.011413    1.072307    11.00000    0.01954    0.02023 =
         0.02895   -0.00287    0.00631   -0.00224
C16   1    0.676327    0.962006    1.120848    11.00000    0.03207    0.02276 =
         0.03629   -0.00362    0.01330   -0.00849
C17   1    0.602865    0.971340    1.320669    11.00000    0.03020    0.02558 =
         0.04262    0.00218    0.01387   -0.00289
C18   1    0.548417    0.921060    1.372463    11.00000    0.06442    0.03340 =
         0.08581   -0.00588    0.05020   -0.01777
C21   1    0.744928    0.750809    0.463633    11.00000    0.02014    0.01674 =
         0.02438   -0.00327   -0.00153   -0.00042
C22   1    0.687184    0.766774    0.678101    11.00000    0.01488    0.01539 =
         0.02427    0.00113   -0.00211    0.00056
C23   1    0.720274    0.809995    0.818852    11.00000    0.01530    0.01675 =
         0.02220   -0.00130    0.00107    0.00173
C24   1    0.802684    0.835996    0.757676    11.00000    0.01564    0.01513 =
         0.02542    0.00018   -0.00319    0.00091
C25   1    0.538963    0.754066    0.892214    11.00000    0.01744    0.02020 =
         0.02580    0.00292    0.00081   -0.00159
C26   1    0.486081    0.801769    0.783760    11.00000    0.01782    0.02449 =
         0.02738    0.00679    0.00121   -0.00057
C27   1    0.403811    0.813374    0.950264    11.00000    0.01921    0.02448 =
         0.03279    0.00672    0.00223    0.00118
C28   1    0.351567    0.862260    0.849095    11.00000    0.02430    0.03278 =
         0.05060    0.01224    0.00278    0.00819
H11   2    1.045441    1.111237    0.507768    11.00000    0.01921
H13   2    0.808174    0.966741    0.834231    11.00000    0.02921
H15A  2    0.695257    1.040972    0.998073    11.00000    0.03645
H15B  2    0.759253    1.021786    1.228895    11.00000    0.03385
H16B  2    0.718980    0.930972    1.199321    11.00000    0.05070
H16A  2    0.654743    0.950905    0.953153    11.00000    0.04325
H17A  2    0.563474    0.999468    1.237117    11.00000    0.04417
H17B  2    0.625337    0.985331    1.483824    11.00000    0.04310
H18A  2    0.529292    0.907414    1.233570    11.00000    0.07880
H18C  2    0.499059    0.928317    1.501021    11.00000    0.05084
H18B  2    0.581809    0.887647    1.415482    11.00000    0.09202
H21   2    0.897762    0.827350    0.496516    11.00000    0.02950
H23   2    0.599788    0.713644    0.614110    11.00000    0.02133
H25A  2    0.500662    0.721594    0.912399    11.00000    0.02856
H25B  2    0.562565    0.760417    1.070296    11.00000    0.01789
H26A  2    0.467733    0.792954    0.599652    11.00000    0.03096
H26B  2    0.527319    0.834305    0.782299    11.00000    0.03019
H27B  2    0.421014    0.819769    1.144855    11.00000    0.02748
H27A  2    0.364896    0.779556    0.958256    11.00000    0.02622
H28B  2    0.297706    0.867432    0.957189    11.00000    0.04268
H28A  2    0.333778    0.858562    0.669346    11.00000    0.04809
H28C  2    0.389935    0.896873    0.854022    11.00000    0.03678
HKLF 4
 
REM  S094 IN PNA2(1)
REM R1 =  0.0380 for   4352 Fo > 4sig(Fo)  and  0.0509 for all   5404 data
REM    341 parameters refined using      1 restraints
 
END  
     
WGHT      0.0523      0.0000 
REM Highest difference peak  0.273,  deepest hole -0.193,  1-sigma level  0.047
Q1    1   0.8874  1.0304  0.6579  11.00000  0.05    0.27
Q2    1   0.9187  1.1014  0.8480  11.00000  0.05    0.27
Q3    1   0.8626  1.0615  0.8140  11.00000  0.05    0.26
Q4    1   0.7612  0.8226  0.7967  11.00000  0.05    0.23
Q5    1   0.9787  1.1030  0.6905  11.00000  0.05    0.22
Q6    1   0.9855  1.0667  0.4971  11.00000  0.05    0.22
Q7    1   0.9984  1.0399  0.3334  11.00000  0.05    0.22
Q8    1   0.9416  1.0390  0.4938  11.00000  0.05    0.21
Q9    1   0.8273  0.7946  0.4417  11.00000  0.05    0.21
Q10   1   0.8250  0.8235  0.6636  11.00000  0.05    0.20
